SAT
-63 -98 4 -9 82 -41 -62 79 -15 28 33 -51 -52 20 -75 -90 57 100 -87 -97 61 68 -14 -81 91 46 -67 44 -74 -55 73 -45 -43 59 -1 -65 -12 95 22 -38 50 -77 -78 -86 92 -39 24 -10 -99 84 6 18 42 13 35 -19 -5 -69 94 -47 -64 27 -30 -56 -29 85 58 53 -54 60 71 11 2 -8 48 16 -26 -70 3 -66 96 -23 89 -76 25 72 32 88 -83 49 31 36 -34 7 -17 -37 -21 80 40 93 0
